c preprocessed version of queen8_12a, 96 vertices, 1368 edges
p td 96 1368
0 13
0 26
0 39
0 52
0 65
0 78
0 91
0 1
0 2
0 3
0 4
0 5
0 6
0 7
0 8
0 9
0 10
0 11
0 12
0 24
0 36
0 48
0 60
0 72
0 84
1 14
1 27
1 40
1 53
1 66
1 79
1 92
1 12
1 2
1 3
1 4
1 5
1 6
1 7
1 8
1 9
1 10
1 11
1 13
1 25
1 37
1 49
1 61
1 73
1 85
2 15
2 28
2 41
2 54
2 67
2 80
2 93
2 13
2 24
2 3
2 4
2 5
2 6
2 7
2 8
2 9
2 10
2 11
2 14
2 26
2 38
2 50
2 62
2 74
2 86
3 16
3 29
3 42
3 55
3 68
3 81
3 94
3 14
3 25
3 36
3 4
3 5
3 6
3 7
3 8
3 9
3 10
3 11
3 15
3 27
3 39
3 51
3 63
3 75
3 87
4 17
4 30
4 43
4 56
4 69
4 82
4 95
4 15
4 26
4 37
4 48
4 5
4 6
4 7
4 8
4 9
4 10
4 11
4 16
4 28
4 40
4 52
4 64
4 76
4 88
5 18
5 31
5 44
5 57
5 70
5 83
5 16
5 27
5 38
5 49
5 60
5 6
5 7
5 8
5 9
5 10
5 11
5 17
5 29
5 41
5 53
5 65
5 77
5 89
6 19
6 32
6 45
6 58
6 71
6 17
6 28
6 39
6 50
6 61
6 72
6 7
6 8
6 9
6 10
6 11
6 18
6 30
6 42
6 54
6 66
6 78
6 90
7 20
7 33
7 46
7 59
7 18
7 29
7 40
7 51
7 62
7 73
7 84
7 8
7 9
7 10
7 11
7 19
7 31
7 43
7 55
7 67
7 79
7 91
8 21
8 34
8 47
8 19
8 30
8 41
8 52
8 63
8 74
8 85
8 9
8 10
8 11
8 20
8 32
8 44
8 56
8 68
8 80
8 92
9 22
9 35
9 20
9 31
9 42
9 53
9 64
9 75
9 86
9 10
9 11
9 21
9 33
9 45
9 57
9 69
9 81
9 93
10 23
10 21
10 32
10 43
10 54
10 65
10 76
10 87
10 11
10 22
10 34
10 46
10 58
10 70
10 82
10 94
11 22
11 33
11 44
11 55
11 66
11 77
11 88
11 23
11 35
11 47
11 59
11 71
11 83
11 95
12 25
12 38
12 51
12 64
12 77
12 90
12 13
12 14
12 15
12 16
12 17
12 18
12 19
12 20
12 21
12 22
12 23
12 24
12 36
12 48
12 60
12 72
12 84
13 26
13 39
13 52
13 65
13 78
13 91
13 24
13 14
13 15
13 16
13 17
13 18
13 19
13 20
13 21
13 22
13 23
13 25
13 37
13 49
13 61
13 73
13 85
14 27
14 40
14 53
14 66
14 79
14 92
14 25
14 36
14 15
14 16
14 17
14 18
14 19
14 20
14 21
14 22
14 23
14 26
14 38
14 50
14 62
14 74
14 86
15 28
15 41
15 54
15 67
15 80
15 93
15 26
15 37
15 48
15 16
15 17
15 18
15 19
15 20
15 21
15 22
15 23
15 27
15 39
15 51
15 63
15 75
15 87
16 29
16 42
16 55
16 68
16 81
16 94
16 27
16 38
16 49
16 60
16 17
16 18
16 19
16 20
16 21
16 22
16 23
16 28
16 40
16 52
16 64
16 76
16 88
17 30
17 43
17 56
17 69
17 82
17 95
17 28
17 39
17 50
17 61
17 72
17 18
17 19
17 20
17 21
17 22
17 23
17 29
17 41
17 53
17 65
17 77
17 89
18 31
18 44
18 57
18 70
18 83
18 29
18 40
18 51
18 62
18 73
18 84
18 19
18 20
18 21
18 22
18 23
18 30
18 42
18 54
18 66
18 78
18 90
19 32
19 45
19 58
19 71
19 30
19 41
19 52
19 63
19 74
19 85
19 20
19 21
19 22
19 23
19 31
19 43
19 55
19 67
19 79
19 91
20 33
20 46
20 59
20 31
20 42
20 53
20 64
20 75
20 86
20 21
20 22
20 23
20 32
20 44
20 56
20 68
20 80
20 92
21 34
21 47
21 32
21 43
21 54
21 65
21 76
21 87
21 22
21 23
21 33
21 45
21 57
21 69
21 81
21 93
22 35
22 33
22 44
22 55
22 66
22 77
22 88
22 23
22 34
22 46
22 58
22 70
22 82
22 94
23 34
23 45
23 56
23 67
23 78
23 89
23 35
23 47
23 59
23 71
23 83
23 95
24 37
24 50
24 63
24 76
24 89
24 25
24 26
24 27
24 28
24 29
24 30
24 31
24 32
24 33
24 34
24 35
24 36
24 48
24 60
24 72
24 84
25 38
25 51
25 64
25 77
25 90
25 36
25 26
25 27
25 28
25 29
25 30
25 31
25 32
25 33
25 34
25 35
25 37
25 49
25 61
25 73
25 85
26 39
26 52
26 65
26 78
26 91
26 37
26 48
26 27
26 28
26 29
26 30
26 31
26 32
26 33
26 34
26 35
26 38
26 50
26 62
26 74
26 86
27 40
27 53
27 66
27 79
27 92
27 38
27 49
27 60
27 28
27 29
27 30
27 31
27 32
27 33
27 34
27 35
27 39
27 51
27 63
27 75
27 87
28 41
28 54
28 67
28 80
28 93
28 39
28 50
28 61
28 72
28 29
28 30
28 31
28 32
28 33
28 34
28 35
28 40
28 52
28 64
28 76
28 88
29 42
29 55
29 68
29 81
29 94
29 40
29 51
29 62
29 73
29 84
29 30
29 31
29 32
29 33
29 34
29 35
29 41
29 53
29 65
29 77
29 89
30 43
30 56
30 69
30 82
30 95
30 41
30 52
30 63
30 74
30 85
30 31
30 32
30 33
30 34
30 35
30 42
30 54
30 66
30 78
30 90
31 44
31 57
31 70
31 83
31 42
31 53
31 64
31 75
31 86
31 32
31 33
31 34
31 35
31 43
31 55
31 67
31 79
31 91
32 45
32 58
32 71
32 43
32 54
32 65
32 76
32 87
32 33
32 34
32 35
32 44
32 56
32 68
32 80
32 92
33 46
33 59
33 44
33 55
33 66
33 77
33 88
33 34
33 35
33 45
33 57
33 69
33 81
33 93
34 47
34 45
34 56
34 67
34 78
34 89
34 35
34 46
34 58
34 70
34 82
34 94
35 46
35 57
35 68
35 79
35 90
35 47
35 59
35 71
35 83
35 95
36 49
36 62
36 75
36 88
36 37
36 38
36 39
36 40
36 41
36 42
36 43
36 44
36 45
36 46
36 47
36 48
36 60
36 72
36 84
37 50
37 63
37 76
37 89
37 48
37 38
37 39
37 40
37 41
37 42
37 43
37 44
37 45
37 46
37 47
37 49
37 61
37 73
37 85
38 51
38 64
38 77
38 90
38 49
38 60
38 39
38 40
38 41
38 42
38 43
38 44
38 45
38 46
38 47
38 50
38 62
38 74
38 86
39 52
39 65
39 78
39 91
39 50
39 61
39 72
39 40
39 41
39 42
39 43
39 44
39 45
39 46
39 47
39 51
39 63
39 75
39 87
40 53
40 66
40 79
40 92
40 51
40 62
40 73
40 84
40 41
40 42
40 43
40 44
40 45
40 46
40 47
40 52
40 64
40 76
40 88
41 54
41 67
41 80
41 93
41 52
41 63
41 74
41 85
41 42
41 43
41 44
41 45
41 46
41 47
41 53
41 65
41 77
41 89
42 55
42 68
42 81
42 94
42 53
42 64
42 75
42 86
42 43
42 44
42 45
42 46
42 47
42 54
42 66
42 78
42 90
43 56
43 69
43 82
43 95
43 54
43 65
43 76
43 87
43 44
43 45
43 46
43 47
43 55
43 67
43 79
43 91
44 57
44 70
44 83
44 55
44 66
44 77
44 88
44 45
44 46
44 47
44 56
44 68
44 80
44 92
45 58
45 71
45 56
45 67
45 78
45 89
45 46
45 47
45 57
45 69
45 81
45 93
46 59
46 57
46 68
46 79
46 90
46 47
46 58
46 70
46 82
46 94
47 58
47 69
47 80
47 91
47 59
47 71
47 83
47 95
48 61
48 74
48 87
48 49
48 50
48 51
48 52
48 53
48 54
48 55
48 56
48 57
48 58
48 59
48 60
48 72
48 84
49 62
49 75
49 88
49 60
49 50
49 51
49 52
49 53
49 54
49 55
49 56
49 57
49 58
49 59
49 61
49 73
49 85
50 63
50 76
50 89
50 61
50 72
50 51
50 52
50 53
50 54
50 55
50 56
50 57
50 58
50 59
50 62
50 74
50 86
51 64
51 77
51 90
51 62
51 73
51 84
51 52
51 53
51 54
51 55
51 56
51 57
51 58
51 59
51 63
51 75
51 87
52 65
52 78
52 91
52 63
52 74
52 85
52 53
52 54
52 55
52 56
52 57
52 58
52 59
52 64
52 76
52 88
53 66
53 79
53 92
53 64
53 75
53 86
53 54
53 55
53 56
53 57
53 58
53 59
53 65
53 77
53 89
54 67
54 80
54 93
54 65
54 76
54 87
54 55
54 56
54 57
54 58
54 59
54 66
54 78
54 90
55 68
55 81
55 94
55 66
55 77
55 88
55 56
55 57
55 58
55 59
55 67
55 79
55 91
56 69
56 82
56 95
56 67
56 78
56 89
56 57
56 58
56 59
56 68
56 80
56 92
57 70
57 83
57 68
57 79
57 90
57 58
57 59
57 69
57 81
57 93
58 71
58 69
58 80
58 91
58 59
58 70
58 82
58 94
59 70
59 81
59 92
59 71
59 83
59 95
60 73
60 86
60 61
60 62
60 63
60 64
60 65
60 66
60 67
60 68
60 69
60 70
60 71
60 72
60 84
61 74
61 87
61 72
61 62
61 63
61 64
61 65
61 66
61 67
61 68
61 69
61 70
61 71
61 73
61 85
62 75
62 88
62 73
62 84
62 63
62 64
62 65
62 66
62 67
62 68
62 69
62 70
62 71
62 74
62 86
63 76
63 89
63 74
63 85
63 64
63 65
63 66
63 67
63 68
63 69
63 70
63 71
63 75
63 87
64 77
64 90
64 75
64 86
64 65
64 66
64 67
64 68
64 69
64 70
64 71
64 76
64 88
65 78
65 91
65 76
65 87
65 66
65 67
65 68
65 69
65 70
65 71
65 77
65 89
66 79
66 92
66 77
66 88
66 67
66 68
66 69
66 70
66 71
66 78
66 90
67 80
67 93
67 78
67 89
67 68
67 69
67 70
67 71
67 79
67 91
68 81
68 94
68 79
68 90
68 69
68 70
68 71
68 80
68 92
69 82
69 95
69 80
69 91
69 70
69 71
69 81
69 93
70 83
70 81
70 92
70 71
70 82
70 94
71 82
71 93
71 83
71 95
72 85
72 73
72 74
72 75
72 76
72 77
72 78
72 79
72 80
72 81
72 82
72 83
72 84
73 86
73 84
73 74
73 75
73 76
73 77
73 78
73 79
73 80
73 81
73 82
73 83
73 85
74 87
74 85
74 75
74 76
74 77
74 78
74 79
74 80
74 81
74 82
74 83
74 86
75 88
75 86
75 76
75 77
75 78
75 79
75 80
75 81
75 82
75 83
75 87
76 89
76 87
76 77
76 78
76 79
76 80
76 81
76 82
76 83
76 88
77 90
77 88
77 78
77 79
77 80
77 81
77 82
77 83
77 89
78 91
78 89
78 79
78 80
78 81
78 82
78 83
78 90
79 92
79 90
79 80
79 81
79 82
79 83
79 91
80 93
80 91
80 81
80 82
80 83
80 92
81 94
81 92
81 82
81 83
81 93
82 95
82 93
82 83
82 94
83 94
83 95
84 85
84 86
84 87
84 88
84 89
84 90
84 91
84 92
84 93
84 94
84 95
85 86
85 87
85 88
85 89
85 90
85 91
85 92
85 93
85 94
85 95
86 87
86 88
86 89
86 90
86 91
86 92
86 93
86 94
86 95
87 88
87 89
87 90
87 91
87 92
87 93
87 94
87 95
88 89
88 90
88 91
88 92
88 93
88 94
88 95
89 90
89 91
89 92
89 93
89 94
89 95
90 91
90 92
90 93
90 94
90 95
91 92
91 93
91 94
91 95
92 93
92 94
92 95
93 94
93 95
94 95
